202 5
2 2 2 2 2
0  0 0 0 0 0  40 2 7 12 17 22 27 32 37 42 47 52 57 62 67 72 77 82 87 92 97 102 107 112 117 122 127 132 137 142 147 152 157 162 167 172 177 182 187 192 197
5  0 0 0 1 0  1 3
58  0 0 0 0 1  1 4
44  0 0 1 0 0  1 5
9  1 0 0 0 0  1 6
58  0 1 0 0 0  1 202
89  0 1 0 0 0  1 8
96  0 0 0 0 1  1 9
97  1 0 0 0 0  1 10
84  0 0 1 0 0  1 11
77  0 0 0 1 0  1 202
81  0 0 1 0 0  1 13
85  0 0 0 1 0  1 14
87  0 1 0 0 0  1 15
39  0 0 0 0 1  1 16
77  1 0 0 0 0  1 202
15  1 0 0 0 0  1 18
57  0 0 0 1 0  1 19
73  0 0 0 0 1  1 20
21  0 1 0 0 0  1 21
31  0 0 1 0 0  1 202
48  0 0 1 0 0  1 23
71  0 0 0 0 1  1 24
70  0 0 0 1 0  1 25
40  1 0 0 0 0  1 26
49  0 1 0 0 0  1 202
10  1 0 0 0 0  1 28
82  0 0 0 0 1  1 29
34  0 0 0 1 0  1 30
80  0 0 1 0 0  1 31
22  0 1 0 0 0  1 202
17  0 0 1 0 0  1 33
55  1 0 0 0 0  1 34
91  0 1 0 0 0  1 35
75  0 0 0 0 1  1 36
7  0 0 0 1 0  1 202
47  0 0 0 1 0  1 38
62  0 0 1 0 0  1 39
72  0 1 0 0 0  1 40
35  0 0 0 0 1  1 41
11  1 0 0 0 0  1 202
90  0 1 0 0 0  1 43
94  0 0 1 0 0  1 44
50  0 0 0 0 1  1 45
64  1 0 0 0 0  1 46
75  0 0 0 1 0  1 202
15  0 0 0 1 0  1 48
67  0 0 1 0 0  1 49
12  1 0 0 0 0  1 50
20  0 0 0 0 1  1 51
71  0 1 0 0 0  1 202
93  0 0 0 0 1  1 53
29  0 0 1 0 0  1 54
52  1 0 0 0 0  1 55
57  0 1 0 0 0  1 56
68  0 0 0 1 0  1 202
77  0 0 0 1 0  1 58
93  0 1 0 0 0  1 59
58  1 0 0 0 0  1 60
70  0 0 1 0 0  1 61
7  0 0 0 0 1  1 202
63  0 1 0 0 0  1 63
27  0 0 0 1 0  1 64
95  1 0 0 0 0  1 65
6  0 0 0 0 1  1 66
82  0 0 1 0 0  1 202
36  0 0 0 0 1  1 68
26  1 0 0 0 0  1 69
48  0 0 0 1 0  1 70
56  0 0 1 0 0  1 71
87  0 1 0 0 0  1 202
36  0 0 1 0 0  1 73
8  0 1 0 0 0  1 74
15  0 0 0 0 1  1 75
76  0 0 0 1 0  1 76
36  1 0 0 0 0  1 202
78  0 0 0 0 1  1 78
84  0 1 0 0 0  1 79
41  0 0 0 1 0  1 80
30  1 0 0 0 0  1 81
76  0 0 1 0 0  1 202
78  0 1 0 0 0  1 83
75  1 0 0 0 0  1 84
88  0 0 0 0 1  1 85
13  0 0 0 1 0  1 86
81  0 0 1 0 0  1 202
54  1 0 0 0 0  1 88
40  0 0 0 0 1  1 89
13  0 0 1 0 0  1 90
82  0 1 0 0 0  1 91
29  0 0 0 1 0  1 202
26  0 1 0 0 0  1 93
82  0 0 0 0 1  1 94
52  1 0 0 0 0  1 95
6  0 0 0 1 0  1 96
6  0 0 1 0 0  1 202
54  0 0 0 1 0  1 98
64  0 1 0 0 0  1 99
54  1 0 0 0 0  1 100
32  0 0 1 0 0  1 101
88  0 0 0 0 1  1 202
5  0 0 0 1 0  1 103
58  0 0 0 0 1  1 104
44  0 0 1 0 0  1 105
9  1 0 0 0 0  1 106
58  0 1 0 0 0  1 202
89  0 1 0 0 0  1 108
96  0 0 0 0 1  1 109
97  1 0 0 0 0  1 110
84  0 0 1 0 0  1 111
77  0 0 0 1 0  1 202
81  0 0 1 0 0  1 113
85  0 0 0 1 0  1 114
87  0 1 0 0 0  1 115
39  0 0 0 0 1  1 116
77  1 0 0 0 0  1 202
15  1 0 0 0 0  1 118
57  0 0 0 1 0  1 119
73  0 0 0 0 1  1 120
21  0 1 0 0 0  1 121
31  0 0 1 0 0  1 202
48  0 0 1 0 0  1 123
71  0 0 0 0 1  1 124
70  0 0 0 1 0  1 125
40  1 0 0 0 0  1 126
49  0 1 0 0 0  1 202
10  1 0 0 0 0  1 128
82  0 0 0 0 1  1 129
34  0 0 0 1 0  1 130
80  0 0 1 0 0  1 131
22  0 1 0 0 0  1 202
17  0 0 1 0 0  1 133
55  1 0 0 0 0  1 134
91  0 1 0 0 0  1 135
75  0 0 0 0 1  1 136
7  0 0 0 1 0  1 202
47  0 0 0 1 0  1 138
62  0 0 1 0 0  1 139
72  0 1 0 0 0  1 140
35  0 0 0 0 1  1 141
11  1 0 0 0 0  1 202
90  0 1 0 0 0  1 143
94  0 0 1 0 0  1 144
50  0 0 0 0 1  1 145
64  1 0 0 0 0  1 146
75  0 0 0 1 0  1 202
15  0 0 0 1 0  1 148
67  0 0 1 0 0  1 149
12  1 0 0 0 0  1 150
20  0 0 0 0 1  1 151
71  0 1 0 0 0  1 202
93  0 0 0 0 1  1 153
29  0 0 1 0 0  1 154
52  1 0 0 0 0  1 155
57  0 1 0 0 0  1 156
68  0 0 0 1 0  1 202
77  0 0 0 1 0  1 158
93  0 1 0 0 0  1 159
58  1 0 0 0 0  1 160
70  0 0 1 0 0  1 161
7  0 0 0 0 1  1 202
63  0 1 0 0 0  1 163
27  0 0 0 1 0  1 164
95  1 0 0 0 0  1 165
6  0 0 0 0 1  1 166
82  0 0 1 0 0  1 202
36  0 0 0 0 1  1 168
26  1 0 0 0 0  1 169
48  0 0 0 1 0  1 170
56  0 0 1 0 0  1 171
87  0 1 0 0 0  1 202
36  0 0 1 0 0  1 173
8  0 1 0 0 0  1 174
15  0 0 0 0 1  1 175
76  0 0 0 1 0  1 176
36  1 0 0 0 0  1 202
78  0 0 0 0 1  1 178
84  0 1 0 0 0  1 179
41  0 0 0 1 0  1 180
30  1 0 0 0 0  1 181
76  0 0 1 0 0  1 202
78  0 1 0 0 0  1 183
75  1 0 0 0 0  1 184
88  0 0 0 0 1  1 185
13  0 0 0 1 0  1 186
81  0 0 1 0 0  1 202
54  1 0 0 0 0  1 188
40  0 0 0 0 1  1 189
13  0 0 1 0 0  1 190
82  0 1 0 0 0  1 191
29  0 0 0 1 0  1 202
26  0 1 0 0 0  1 193
82  0 0 0 0 1  1 194
52  1 0 0 0 0  1 195
6  0 0 0 1 0  1 196
6  0 0 1 0 0  1 202
54  0 0 0 1 0  1 198
64  0 1 0 0 0  1 199
54  1 0 0 0 0  1 200
32  0 0 1 0 0  1 201
88  0 0 0 0 1  1 202
0  0 0 0 0 0  0
